\ No. vars=200 No. cons=400 Density= 0.05 Range of costs= 1 to 1
\ Name of file is pk24c.lp
Maximize
obj:    1 x1 +  1 x2 +  1 x3 +  1 x4 +  1 x5 +  1 x6 +  1 x7 +  1 x8 +  1 x9 +  1 x10
 +  1 x11 +  1 x12 +  1 x13 +  1 x14 +  1 x15 +  1 x16 +  1 x17 +  1 x18 +  1 x19 +  1 x20
 +  1 x21 +  1 x22 +  1 x23 +  1 x24 +  1 x25 +  1 x26 +  1 x27 +  1 x28 +  1 x29 +  1 x30
 +  1 x31 +  1 x32 +  1 x33 +  1 x34 +  1 x35 +  1 x36 +  1 x37 +  1 x38 +  1 x39 +  1 x40
 +  1 x41 +  1 x42 +  1 x43 +  1 x44 +  1 x45 +  1 x46 +  1 x47 +  1 x48 +  1 x49 +  1 x50
 +  1 x51 +  1 x52 +  1 x53 +  1 x54 +  1 x55 +  1 x56 +  1 x57 +  1 x58 +  1 x59 +  1 x60
 +  1 x61 +  1 x62 +  1 x63 +  1 x64 +  1 x65 +  1 x66 +  1 x67 +  1 x68 +  1 x69 +  1 x70
 +  1 x71 +  1 x72 +  1 x73 +  1 x74 +  1 x75 +  1 x76 +  1 x77 +  1 x78 +  1 x79 +  1 x80
 +  1 x81 +  1 x82 +  1 x83 +  1 x84 +  1 x85 +  1 x86 +  1 x87 +  1 x88 +  1 x89 +  1 x90
 +  1 x91 +  1 x92 +  1 x93 +  1 x94 +  1 x95 +  1 x96 +  1 x97 +  1 x98 +  1 x99 +  1 x100
 +  1 x101 +  1 x102 +  1 x103 +  1 x104 +  1 x105 +  1 x106 +  1 x107 +  1 x108 +  1 x109 +  1 x110
 +  1 x111 +  1 x112 +  1 x113 +  1 x114 +  1 x115 +  1 x116 +  1 x117 +  1 x118 +  1 x119 +  1 x120
 +  1 x121 +  1 x122 +  1 x123 +  1 x124 +  1 x125 +  1 x126 +  1 x127 +  1 x128 +  1 x129 +  1 x130
 +  1 x131 +  1 x132 +  1 x133 +  1 x134 +  1 x135 +  1 x136 +  1 x137 +  1 x138 +  1 x139 +  1 x140
 +  1 x141 +  1 x142 +  1 x143 +  1 x144 +  1 x145 +  1 x146 +  1 x147 +  1 x148 +  1 x149 +  1 x150
 +  1 x151 +  1 x152 +  1 x153 +  1 x154 +  1 x155 +  1 x156 +  1 x157 +  1 x158 +  1 x159 +  1 x160
 +  1 x161 +  1 x162 +  1 x163 +  1 x164 +  1 x165 +  1 x166 +  1 x167 +  1 x168 +  1 x169 +  1 x170
 +  1 x171 +  1 x172 +  1 x173 +  1 x174 +  1 x175 +  1 x176 +  1 x177 +  1 x178 +  1 x179 +  1 x180
 +  1 x181 +  1 x182 +  1 x183 +  1 x184 +  1 x185 +  1 x186 +  1 x187 +  1 x188 +  1 x189 +  1 x190
 +  1 x191 +  1 x192 +  1 x193 +  1 x194 +  1 x195 +  1 x196 +  1 x197 +  1 x198 +  1 x199 +  1 x200
Subject To
c1:   x14 + x47 + x58 + x78 + x97 + x99 + x102 + x104 + x107 + x110
 + x118 + x134 + x141 + x151 + x186  <= 1
c2:   x10 + x36 + x66 + x68 + x104 + x127 + x129 + x134 + x150  <= 1
c3:   x48 + x64 + x115 + x124 + x153 + x155 + x195  <= 1
c4:   x4 + x16 + x98 + x108 + x151 + x157 + x196  <= 1
c5:   x10 + x53 + x122 + x151 + x183 + x184 + x188 + x194  <= 1
c6:   x24 + x65 + x78 + x104 + x164 + x166 + x181  <= 1
c7:   x3 + x10 + x21 + x32 + x52 + x75 + x84 + x111 + x138 + x144
 + x152 + x159  <= 1
c8:   x117 + x127 + x131 + x146 + x154 + x169 + x191 + x197 + x199  <= 1
c9:   x70 + x75 + x114 + x115 + x139 + x166 + x167 + x175 + x185 + x195  <= 1
c10:   x4 + x23 + x35 + x37 + x44 + x78 + x110 + x111 + x146 + x188
 + x189 + x194  <= 1
c11:   x4 + x41 + x79 + x83 + x98 + x143 + x146  <= 1
c12:   x2 + x10 + x36 + x59 + x61 + x85 + x103 + x123 + x129 + x133
 + x135 + x149 + x183 + x189  <= 1
c13:   x15 + x55 + x63 + x96 + x193  <= 1
c14:   x28 + x34 + x39 + x48 + x116  <= 1
c15:   x19 + x25 + x40 + x78 + x94 + x110 + x113 + x121 + x130 + x135
 + x155 + x163 + x173  <= 1
c16:   x8 + x29 + x57 + x73 + x74 + x75 + x89 + x105 + x108 + x112
 + x140 + x141 + x147 + x148 + x150 + x179 + x188  <= 1
c17:   x1 + x10 + x17 + x75 + x86 + x100 + x145 + x160 + x199  <= 1
c18:   x49 + x90 + x95 + x101 + x130 + x134 + x154 + x156  <= 1
c19:   x31 + x36 + x47 + x76 + x94 + x118 + x119 + x156 + x166 + x173  <= 1
c20:   x13 + x19 + x44 + x53 + x82 + x96 + x114 + x155 + x162 + x173
 + x187  <= 1
c21:   x7 + x38 + x46 + x47 + x94 + x113 + x117 + x173 + x186  <= 1
c22:   x2 + x85 + x147 + x152 + x187 + x192  <= 1
c23:   x24 + x42 + x54 + x63 + x76 + x81 + x105 + x120 + x121 + x129
 + x144 + x162 + x170 + x174 + x180  <= 1
c24:   x14 + x17 + x41 + x45 + x85 + x88 + x97 + x98 + x100 + x131
 + x179  <= 1
c25:   x4 + x8 + x72 + x77 + x91 + x153 + x174  <= 1
c26:   x33 + x35 + x38 + x96 + x100 + x107 + x115 + x129 + x149  <= 1
c27:   x24 + x34 + x78 + x84 + x108 + x109 + x112 + x116 + x142 + x197  <= 1
c28:   x2 + x11 + x30 + x43 + x49 + x63 + x101 + x102 + x111 + x130
 + x153 + x157 + x180  <= 1
c29:   x43 + x63 + x65 + x107 + x115 + x135 + x145 + x161 + x189  <= 1
c30:   x5 + x83 + x115 + x180 + x195  <= 1
c31:   x14 + x24 + x39 + x59 + x68 + x71 + x103 + x115 + x135 + x173
 + x188  <= 1
c32:   x11 + x12 + x14 + x52 + x55 + x69 + x73 + x105 + x131 + x140
 + x150 + x197  <= 1
c33:   x2 + x4 + x15 + x23 + x36 + x60 + x61 + x84 + x86 + x96
 + x99 + x105 + x106 + x121 + x151 + x161 + x166 + x189 + x192  <= 1
c34:   x8 + x26 + x53 + x80 + x100 + x122 + x123 + x124 + x140 + x155
 + x193  <= 1
c35:   x2 + x29 + x89 + x107 + x116 + x133 + x136 + x166 + x184 + x196  <= 1
c36:   x5 + x35 + x76 + x80 + x103 + x104 + x134 + x168 + x176 + x196  <= 1
c37:   x34 + x85 + x88 + x98 + x193  <= 1
c38:   x6 + x16 + x98 + x101 + x111 + x126 + x137 + x160 + x198  <= 1
c39:   x6 + x18 + x31 + x33 + x74 + x92 + x94 + x104 + x126 + x145
 + x170 + x172 + x179 + x183  <= 1
c40:   x12 + x40 + x56 + x61 + x76 + x94 + x96 + x185  <= 1
c41:   x34 + x53 + x66 + x81 + x95 + x101 + x123 + x173 + x175 + x189
 + x192  <= 1
c42:   x22 + x75 + x108 + x128 + x151 + x171 + x183 + x194 + x200  <= 1
c43:   x9 + x11 + x12 + x43 + x76 + x139  <= 1
c44:   x43 + x99 + x114 + x123 + x152 + x164  <= 1
c45:   x12 + x14 + x21 + x27 + x35 + x76 + x108 + x124 + x140 + x163
 + x185 + x198  <= 1
c46:   x4 + x8 + x40 + x45 + x79 + x160 + x165 + x166  <= 1
c47:   x27 + x28 + x39 + x54 + x95 + x137 + x167  <= 1
c48:   x5 + x19 + x68 + x72 + x81 + x124 + x135 + x155 + x158 + x164
 + x190 + x195  <= 1
c49:   x38 + x94 + x96 + x109 + x124 + x130 + x184 + x197 + x200  <= 1
c50:   x14 + x17 + x19 + x41 + x59 + x93 + x111 + x133 + x146 + x168
 + x170 + x195 + x198  <= 1
c51:   x10 + x19 + x33 + x47 + x59 + x62 + x63 + x110 + x119 + x126
 + x137 + x145 + x180 + x198  <= 1
c52:   x56 + x63 + x67 + x70 + x72 + x76 + x87 + x90 + x95 + x103
 + x114 + x150 + x192  <= 1
c53:   x3 + x32 + x83 + x126 + x159 + x169 + x192 + x194  <= 1
c54:   x21 + x23 + x56 + x68 + x86 + x105 + x106 + x107 + x108 + x111
 + x147  <= 1
c55:   x10 + x21 + x23 + x24 + x34 + x39 + x82 + x89 + x138 + x150
 + x185 + x193  <= 1
c56:   x16 + x25 + x43 + x69 + x108 + x113 + x154 + x180  <= 1
c57:   x6 + x10 + x12 + x60 + x67 + x68 + x88 + x101 + x116 + x125
 + x131 + x132 + x169 + x178 + x179  <= 1
c58:   x14 + x27 + x30 + x88 + x91 + x100 + x108 + x110 + x114 + x124
 + x128  <= 1
c59:   x20 + x67 + x83 + x91 + x103 + x125 + x132 + x142 + x145 + x169
 + x195  <= 1
c60:   x16 + x17 + x46 + x58 + x129 + x133 + x149 + x156 + x169 + x173
 + x176 + x196  <= 1
c61:   x22 + x42 + x56 + x62 + x85 + x97 + x113 + x129 + x157  <= 1
c62:   x26 + x41 + x63 + x69 + x77 + x82 + x150 + x167 + x179  <= 1
c63:   x68 + x99 + x105 + x114 + x117 + x124 + x135 + x145 + x146 + x182
 + x194  <= 1
c64:   x20 + x45 + x70 + x71 + x86 + x95 + x108 + x130 + x134 + x135
 + x176  <= 1
c65:   x19 + x46 + x47 + x61 + x62 + x65 + x68 + x70 + x130 + x136
 + x168 + x169 + x174 + x180 + x181  <= 1
c66:   x8 + x26 + x117 + x119 + x131 + x144 + x146 + x156 + x163 + x189
 + x191  <= 1
c67:   x1 + x8 + x15 + x19 + x24 + x43 + x101 + x114 + x116 + x137
 + x169 + x184 + x193  <= 1
c68:   x48 + x55 + x65 + x82 + x108 + x127 + x193  <= 1
c69:   x9 + x15 + x79 + x150  <= 1
c70:   x27 + x33 + x34 + x108 + x113 + x126 + x132 + x133 + x134 + x171
 + x191  <= 1
c71:   x4 + x11 + x16 + x17 + x175 + x177 + x180 + x193  <= 1
c72:   x48 + x53 + x57 + x75 + x91 + x104 + x153 + x180  <= 1
c73:   x37 + x89 + x106 + x109 + x112 + x139 + x152 + x156 + x160 + x180
 + x192 + x193  <= 1
c74:   x28 + x68 + x79 + x88  <= 1
c75:   x21 + x31 + x50 + x56 + x62 + x70 + x85 + x101 + x123 + x129
 + x141 + x181  <= 1
c76:   x4 + x20 + x22 + x88 + x117 + x122 + x132 + x159 + x160 + x182
 + x195  <= 1
c77:   x11 + x26 + x32 + x34 + x56 + x63 + x76 + x84 + x127 + x136
 + x148 + x152 + x176 + x187  <= 1
c78:   x71 + x135 + x165 + x181  <= 1
c79:   x12 + x25 + x33 + x34 + x39 + x50 + x54 + x76 + x87 + x89
 + x102 + x113 + x116 + x118 + x144 + x150 + x179 + x186 + x188  <= 1
c80:   x3 + x12 + x38 + x105 + x130 + x144 + x185 + x198  <= 1
c81:   x41 + x45 + x59 + x68 + x71 + x107 + x124 + x127 + x142 + x188
 + x189  <= 1
c82:   x1 + x28 + x36 + x42 + x93 + x100 + x153 + x157 + x158  <= 1
c83:   x15 + x26 + x65 + x66 + x86 + x94 + x96 + x99 + x121 + x135
 + x145 + x184  <= 1
c84:   x15 + x52 + x74 + x75 + x87 + x100 + x103 + x157 + x189 + x195
 + x199  <= 1
c85:   x35 + x54 + x64 + x110 + x114 + x122 + x126 + x137 + x159 + x168  <= 1
c86:   x11 + x43 + x74 + x75 + x78 + x81 + x105 + x116 + x123 + x147
 + x161  <= 1
c87:   x40 + x71 + x138 + x154 + x165 + x175 + x194 + x199  <= 1
c88:   x4 + x8 + x57 + x65 + x66 + x112 + x129 + x135 + x156 + x157
 + x170 + x177 + x178  <= 1
c89:   x1 + x50 + x51 + x109 + x124 + x146 + x156 + x176 + x177  <= 1
c90:   x47 + x71 + x76 + x86 + x94 + x104 + x135  <= 1
c91:   x31 + x32 + x36 + x41 + x60 + x61 + x179  <= 1
c92:   x13 + x28 + x82 + x98 + x108 + x117 + x123 + x127 + x183 + x195
 + x199  <= 1
c93:   x9 + x16 + x40 + x63 + x88 + x101 + x161 + x176 + x179  <= 1
c94:   x7 + x13 + x23 + x40 + x88 + x95 + x108 + x130 + x148 + x150  <= 1
c95:   x74 + x92 + x109 + x159 + x189 + x192  <= 1
c96:   x10 + x18 + x28 + x38 + x41 + x43 + x54 + x122 + x138 + x154
 + x163 + x165 + x180 + x187  <= 1
c97:   x26 + x31 + x32 + x44 + x55 + x76 + x81  <= 1
c98:   x46 + x56 + x66 + x67 + x86 + x119 + x145 + x169 + x180 + x190  <= 1
c99:   x20 + x23 + x51 + x85 + x106 + x115 + x127 + x134 + x168 + x181
 + x188 + x192  <= 1
c100:   x29 + x65 + x84 + x100 + x104 + x108 + x148 + x164 + x172  <= 1
c101:   x4 + x23 + x36 + x90 + x111 + x114 + x118 + x127 + x144  <= 1
c102:   x6 + x46 + x51 + x154 + x181 + x189 + x192 + x198  <= 1
c103:   x15 + x43 + x46 + x55 + x56 + x71 + x83 + x93 + x106 + x107
 + x108 + x124 + x191  <= 1
c104:   x9 + x32 + x33 + x35 + x53 + x102 + x114 + x125 + x140  <= 1
c105:   x31 + x60 + x76 + x141 + x144 + x159 + x172 + x178 + x195 + x199
 + x200  <= 1
c106:   x37 + x39 + x67 + x77 + x116 + x142 + x161 + x162 + x168  <= 1
c107:   x5 + x29 + x30 + x43 + x149 + x161 + x170 + x178  <= 1
c108:   x23 + x42 + x60 + x62 + x80 + x82  <= 1
c109:   x3 + x4 + x54 + x73 + x83 + x86 + x94 + x101 + x102 + x106
 + x112 + x118 + x138  <= 1
c110:   x19 + x23 + x38 + x52 + x70 + x86 + x100 + x130 + x141  <= 1
c111:   x47 + x70 + x87 + x114 + x120 + x128 + x170 + x200  <= 1
c112:   x28 + x36 + x62 + x67 + x83 + x91 + x152 + x165 + x187  <= 1
c113:   x12 + x18 + x47 + x74 + x173 + x177 + x179 + x181 + x195  <= 1
c114:   x10 + x16 + x54 + x76 + x89 + x103 + x117 + x140 + x156  <= 1
c115:   x27 + x61 + x115 + x120 + x121 + x132 + x168 + x169  <= 1
c116:   x23 + x65 + x96 + x115 + x137 + x176 + x199  <= 1
c117:   x29 + x56 + x67 + x85 + x100 + x107 + x138 + x145 + x153 + x171
 + x176 + x193  <= 1
c118:   x19 + x41 + x77 + x87 + x168 + x194 + x199  <= 1
c119:   x12 + x17 + x27 + x46 + x71 + x86 + x96 + x135 + x173 + x199  <= 1
c120:   x1 + x23 + x32 + x39 + x48 + x52 + x67 + x96 + x98 + x131
 + x133 + x159 + x176 + x191  <= 1
c121:   x14 + x22 + x91 + x102 + x107 + x113 + x119 + x120 + x133 + x156
 + x185  <= 1
c122:   x3 + x22 + x31 + x56 + x70 + x117 + x152 + x166 + x175 + x188  <= 1
c123:   x16 + x29 + x36 + x42 + x73 + x78 + x98 + x138 + x163 + x165
 + x181 + x190 + x198  <= 1
c124:   x14 + x45 + x60 + x103 + x104 + x120 + x129 + x136 + x140 + x192  <= 1
c125:   x24 + x29 + x41 + x50 + x90 + x110 + x115 + x166 + x194  <= 1
c126:   x5 + x80 + x84 + x102 + x115 + x120 + x141 + x148 + x178 + x191
 + x194 + x199 + x200  <= 1
c127:   x1 + x52 + x86 + x94 + x161 + x180  <= 1
c128:   x35 + x117 + x150 + x164  <= 1
c129:   x9 + x14 + x24 + x43 + x51 + x59 + x66 + x190 + x193 + x195  <= 1
c130:   x9 + x24 + x55 + x97 + x113 + x126 + x179  <= 1
c131:   x9 + x19 + x23 + x95 + x125 + x156 + x189 + x192 + x193 + x199  <= 1
c132:   x37 + x52 + x57 + x68 + x127 + x164 + x186 + x189  <= 1
c133:   x1 + x43 + x76 + x104 + x145 + x176 + x185  <= 1
c134:   x18 + x26 + x34 + x74 + x112 + x120 + x131 + x170 + x173  <= 1
c135:   x6 + x16 + x27 + x32 + x43 + x52 + x101 + x115 + x148 + x162
 + x196  <= 1
c136:   x13 + x22 + x32 + x39 + x44 + x48 + x91 + x149 + x151 + x191  <= 1
c137:   x64 + x74 + x76 + x88 + x107 + x142 + x192  <= 1
c138:   x91 + x135 + x139 + x149 + x154 + x155 + x162 + x176 + x198  <= 1
c139:   x1 + x10 + x14 + x18 + x40 + x42 + x43 + x48 + x51 + x82
 + x85 + x90 + x97 + x98 + x114 + x133 + x150 + x153 + x161 + x189  <= 1
c140:   x29 + x66 + x87 + x97 + x98 + x109 + x137 + x171 + x180 + x185  <= 1
c141:   x3 + x18 + x20 + x23 + x69 + x90 + x106 + x119 + x125 + x143
 + x149 + x154 + x160 + x182 + x193 + x195  <= 1
c142:   x31 + x54 + x58 + x118 + x157 + x159 + x169  <= 1
c143:   x27 + x46 + x105 + x110  <= 1
c144:   x33 + x37 + x40 + x53 + x88 + x99 + x143 + x149 + x188  <= 1
c145:   x13 + x34 + x42 + x49 + x97 + x105 + x155 + x171 + x172 + x190  <= 1
c146:   x11 + x89 + x107 + x110 + x111 + x118 + x141 + x159 + x189  <= 1
c147:   x2 + x21 + x44 + x52 + x82 + x88 + x93 + x132 + x136 + x166
 + x181  <= 1
c148:   x8 + x38 + x39 + x62 + x82 + x97 + x133 + x137 + x152 + x158  <= 1
c149:   x17 + x23 + x26 + x61 + x90 + x107 + x123 + x125 + x171  <= 1
c150:   x26 + x72 + x83 + x141 + x168 + x171 + x194 + x195 + x196 + x199  <= 1
c151:   x7 + x26 + x51 + x136 + x162 + x178 + x179 + x195 + x200  <= 1
c152:   x37 + x53 + x76 + x143 + x149 + x197 + x199  <= 1
c153:   x25 + x90 + x102 + x114 + x127 + x135 + x144 + x162  <= 1
c154:   x7 + x16 + x28 + x77 + x96 + x103 + x113 + x140 + x150 + x156
 + x180 + x187  <= 1
c155:   x5 + x12 + x47 + x73 + x77 + x118 + x120 + x167 + x171 + x181  <= 1
c156:   x29 + x50 + x92 + x100 + x185  <= 1
c157:   x17 + x57 + x118 + x132 + x137 + x147 + x176  <= 1
c158:   x61 + x67 + x91 + x98 + x113 + x126 + x131 + x145 + x172 + x200  <= 1
c159:   x16 + x34 + x52 + x60 + x63 + x91 + x104 + x105 + x106 + x163
 + x197  <= 1
c160:   x1 + x33 + x34 + x40 + x41 + x46 + x87 + x121 + x136 + x145
 + x149 + x157 + x161 + x164 + x197  <= 1
c161:   x14 + x25 + x59 + x66 + x88 + x120 + x179  <= 1
c162:   x2 + x8 + x19 + x61 + x82 + x88 + x121 + x132 + x133 + x159  <= 1
c163:   x5 + x17 + x22 + x24 + x72 + x104 + x117 + x131 + x140 + x141
 + x179  <= 1
c164:   x20 + x40 + x105 + x124 + x144  <= 1
c165:   x31 + x37 + x66 + x91 + x101 + x155 + x175 + x184  <= 1
c166:   x13 + x48 + x89 + x103 + x106 + x119 + x124 + x137 + x181 + x198  <= 1
c167:   x23 + x31 + x87 + x106 + x131 + x147 + x150 + x170  <= 1
c168:   x160  <= 1
c169:   x25 + x42 + x46 + x51 + x53 + x86 + x88 + x109 + x121 + x124
 + x125 + x148 + x160 + x161 + x175 + x179  <= 1
c170:   x15 + x18 + x24 + x29 + x39 + x47 + x56 + x61 + x66 + x80
 + x99 + x137 + x167 + x194  <= 1
c171:   x10 + x18 + x24 + x53 + x71 + x116 + x133 + x145 + x171 + x198  <= 1
c172:   x1 + x34 + x116 + x121 + x126 + x138 + x163 + x166 + x191  <= 1
c173:   x25 + x39 + x84 + x126 + x166 + x190  <= 1
c174:   x22 + x46 + x50 + x148 + x180 + x183 + x190 + x198  <= 1
c175:   x33 + x42 + x51 + x97 + x146 + x165 + x195  <= 1
c176:   x6 + x43 + x95 + x98 + x101 + x157 + x158 + x165 + x196  <= 1
c177:   x7 + x42 + x64 + x83 + x118 + x145 + x178 + x179 + x180  <= 1
c178:   x40 + x128 + x129 + x132 + x175 + x176 + x178 + x184  <= 1
c179:   x72 + x91 + x126 + x155 + x156 + x181  <= 1
c180:   x6 + x17 + x30 + x31 + x43 + x61 + x62 + x72 + x81 + x87
 + x102 + x113 + x116 + x138 + x159 + x189  <= 1
c181:   x34 + x47 + x78 + x88 + x133 + x194  <= 1
c182:   x19 + x24 + x26 + x37 + x62 + x71 + x76 + x86 + x94 + x106
 + x197 + x200  <= 1
c183:   x22 + x30 + x34 + x57 + x79 + x109 + x164 + x188  <= 1
c184:   x19 + x24 + x31 + x50 + x61 + x73 + x139 + x156 + x160 + x164  <= 1
c185:   x65 + x73 + x103 + x113 + x114 + x115 + x123 + x133 + x146 + x171
 + x172 + x175 + x181  <= 1
c186:   x1 + x9 + x19 + x51 + x59 + x80 + x87 + x123 + x124 + x129
 + x184  <= 1
c187:   x76 + x81 + x155 + x159 + x172 + x187  <= 1
c188:   x12 + x30 + x40 + x62 + x63 + x83 + x98 + x118 + x119 + x120
 + x156 + x178 + x180 + x184  <= 1
c189:   x14 + x16 + x51 + x54 + x81 + x90 + x94 + x110 + x126 + x128
 + x139 + x155 + x187  <= 1
c190:   x30 + x83 + x131 + x135 + x141 + x166 + x170  <= 1
c191:   x8 + x12 + x55 + x64 + x73 + x79 + x114 + x133 + x157 + x174
 + x192  <= 1
c192:   x7 + x18 + x27 + x80 + x131 + x139 + x142 + x159 + x160 + x167
 + x175 + x182  <= 1
c193:   x36 + x74 + x100 + x104 + x107 + x125 + x135 + x190  <= 1
c194:   x7 + x49 + x71 + x81 + x84 + x91 + x95 + x140 + x144 + x147
 + x185  <= 1
c195:   x40 + x64 + x82 + x100 + x124 + x143 + x147 + x150 + x153 + x171
 + x174 + x187  <= 1
c196:   x13 + x27 + x47 + x63 + x77 + x79 + x89 + x123 + x129  <= 1
c197:   x36 + x39 + x66 + x73 + x90 + x101  <= 1
c198:   x51 + x94 + x123 + x178 + x190 + x194  <= 1
c199:   x3 + x25 + x47 + x83 + x115  <= 1
c200:   x35 + x41 + x56 + x90 + x95 + x102 + x114 + x123 + x125 + x126
 + x136 + x149 + x150  <= 1
c201:   x13 + x36 + x80 + x90 + x124 + x148 + x171 + x184 + x189  <= 1
c202:   x20 + x32 + x40 + x42 + x46 + x63 + x75 + x87 + x91 + x96
 + x106 + x109 + x120 + x176 + x193  <= 1
c203:   x12 + x16 + x23 + x43 + x49 + x71 + x76 + x94 + x112 + x125
 + x129 + x146 + x158 + x172 + x187 + x196  <= 1
c204:   x16 + x51 + x93 + x98 + x178 + x180 + x188 + x192 + x197  <= 1
c205:   x15 + x16 + x73 + x104 + x105 + x107 + x109 + x125 + x129  <= 1
c206:   x35 + x46 + x48 + x62 + x70 + x89 + x132 + x148 + x180 + x183  <= 1
c207:   x56 + x84 + x123 + x134  <= 1
c208:   x18 + x50 + x97 + x158 + x160 + x170 + x195  <= 1
c209:   x24 + x37 + x49 + x71 + x141 + x144 + x151  <= 1
c210:   x4 + x30 + x44 + x47 + x50 + x65 + x105 + x113 + x127 + x152
 + x156  <= 1
c211:   x75 + x94 + x151 + x190  <= 1
c212:   x1 + x10 + x24 + x34 + x91 + x109 + x134  <= 1
c213:   x6 + x54 + x74 + x84 + x137 + x144 + x153 + x170 + x175  <= 1
c214:   x3 + x7 + x12 + x25 + x30 + x40 + x53 + x61 + x72 + x86
 + x129 + x133 + x140 + x163 + x184 + x194  <= 1
c215:   x31 + x35 + x40 + x50 + x83 + x137 + x162 + x191  <= 1
c216:   x23 + x24 + x38 + x55 + x83 + x87 + x95 + x105 + x115 + x125
 + x175 + x180 + x182  <= 1
c217:   x3 + x20 + x33 + x45 + x46 + x60 + x63 + x87 + x120 + x149
 + x154 + x171 + x177 + x182 + x188 + x190 + x195 + x196 + x199  <= 1
c218:   x8 + x18 + x58 + x62 + x132 + x138 + x145 + x166 + x169  <= 1
c219:   x13 + x27 + x38 + x47 + x58 + x64 + x97 + x120 + x138 + x141
 + x157 + x198  <= 1
c220:   x26 + x37 + x46 + x81 + x92 + x109 + x110 + x130 + x131 + x165
 + x184 + x187  <= 1
c221:   x16 + x23 + x67 + x89 + x115 + x117 + x129 + x141 + x155 + x164
 + x170 + x177 + x189 + x194 + x200  <= 1
c222:   x13 + x41 + x43 + x71 + x117 + x121 + x146 + x159 + x168  <= 1
c223:   x29 + x37 + x57 + x60 + x78 + x96 + x104 + x106 + x151 + x155
 + x160 + x165 + x168  <= 1
c224:   x10 + x55 + x97 + x106 + x123 + x135 + x152 + x155 + x156 + x176
 + x184  <= 1
c225:   x7 + x31 + x60 + x68 + x126 + x137 + x140 + x166 + x168 + x175  <= 1
c226:   x22 + x23 + x71 + x73 + x77 + x80 + x81 + x84 + x108 + x111
 + x129 + x131 + x141 + x158 + x174 + x198  <= 1
c227:   x11 + x12 + x58 + x66 + x78 + x98 + x100 + x102 + x115 + x140
 + x178 + x194  <= 1
c228:   x1 + x33 + x35 + x38 + x52 + x61 + x91 + x142 + x157 + x159
 + x174 + x195  <= 1
c229:   x7 + x12 + x35 + x41 + x69 + x79 + x90 + x149 + x163 + x167  <= 1
c230:   x50 + x59 + x63 + x72 + x80 + x94 + x112 + x115 + x142 + x164  <= 1
c231:   x7 + x8 + x12 + x26 + x32 + x40 + x51 + x57 + x63 + x78
 + x93 + x109 + x134 + x143 + x159 + x189 + x192 + x193  <= 1
c232:   x15 + x21 + x22 + x37 + x47 + x55 + x63 + x81 + x88 + x105
 + x106 + x113 + x117  <= 1
c233:   x13 + x41 + x52 + x91 + x101 + x103 + x106 + x123 + x126 + x141
 + x164 + x167  <= 1
c234:   x2 + x12 + x33 + x47 + x64 + x71 + x84 + x90 + x93 + x108
 + x118 + x128 + x154  <= 1
c235:   x2 + x30 + x41 + x75 + x111 + x125 + x179 + x193  <= 1
c236:   x62 + x76 + x77 + x96 + x107 + x124 + x125 + x133 + x184  <= 1
c237:   x15 + x28 + x46 + x62 + x139 + x160 + x184  <= 1
c238:   x2 + x6 + x18 + x43 + x54 + x64 + x85 + x103 + x117 + x129
 + x156  <= 1
c239:   x1 + x19 + x35 + x75 + x101 + x107 + x110 + x136 + x137 + x152
 + x194  <= 1
c240:   x10 + x56 + x63 + x78 + x102 + x125 + x133 + x179 + x194  <= 1
c241:   x22 + x34 + x47 + x64 + x81 + x86 + x129 + x138 + x161 + x180  <= 1
c242:   x49 + x56 + x131 + x139 + x145 + x166 + x172 + x173  <= 1
c243:   x4 + x42 + x52 + x54 + x55 + x62 + x69 + x88 + x128 + x144
 + x158 + x163 + x178  <= 1
c244:   x1 + x3 + x7 + x30 + x39 + x61 + x68 + x106 + x155 + x176
 + x187  <= 1
c245:   x27 + x29 + x35 + x62 + x143 + x149 + x166 + x168 + x180 + x181
 + x183  <= 1
c246:   x30 + x60 + x66 + x80 + x161 + x173  <= 1
c247:   x22 + x39 + x46 + x53 + x92 + x128 + x135 + x167 + x198 + x200  <= 1
c248:   x4 + x28 + x46 + x49 + x62 + x84 + x110 + x129 + x146 + x198  <= 1
c249:   x7 + x25 + x34 + x52 + x68 + x116 + x137 + x158  <= 1
c250:   x3 + x23 + x43 + x46 + x63 + x80 + x104 + x120 + x125 + x126
 + x156 + x177 + x182  <= 1
c251:   x17 + x44 + x95 + x118 + x135 + x136 + x140 + x171 + x177 + x178
 + x196  <= 1
c252:   x7 + x9 + x42 + x75 + x84 + x93 + x111 + x112 + x161 + x182  <= 1
c253:   x2 + x31 + x33 + x44 + x76 + x77 + x99 + x133 + x139 + x145
 + x148 + x153 + x178 + x183  <= 1
c254:   x2 + x9 + x24 + x47 + x71 + x110 + x133 + x143 + x148 + x197  <= 1
c255:   x6 + x39 + x95 + x115 + x129 + x144  <= 1
c256:   x28 + x32 + x43 + x53 + x112 + x141 + x144 + x177 + x197  <= 1
c257:   x57 + x66 + x69 + x122 + x127 + x152 + x180 + x182 + x190  <= 1
c258:   x29 + x31 + x53 + x54 + x125 + x138 + x157 + x165  <= 1
c259:   x2 + x12 + x44 + x52 + x54 + x67 + x85 + x112 + x138 + x161
 + x167 + x180 + x192 + x196  <= 1
c260:   x22 + x24 + x32 + x60 + x64 + x78 + x98 + x122 + x132 + x144
 + x149 + x167  <= 1
c261:   x17 + x32 + x50 + x95 + x113 + x127 + x133 + x141 + x154 + x178
 + x195 + x197  <= 1
c262:   x30 + x49 + x50 + x78 + x82 + x141 + x145 + x155 + x166  <= 1
c263:   x4 + x14 + x16 + x44 + x66 + x86 + x111 + x133 + x161 + x189
 + x191 + x197  <= 1
c264:   x9 + x20 + x35 + x50 + x92 + x108 + x120 + x131 + x137 + x148
 + x151 + x172 + x177 + x183 + x190 + x198  <= 1
c265:   x2 + x26 + x28 + x38 + x48 + x52 + x76 + x90 + x112 + x117
 + x134 + x146 + x155 + x156 + x167  <= 1
c266:   x6 + x40 + x42 + x54 + x56 + x65 + x66 + x69 + x86 + x94
 + x112 + x117 + x179 + x197  <= 1
c267:   x58 + x71 + x86 + x120 + x133 + x189 + x194  <= 1
c268:   x2 + x9 + x31 + x45 + x81 + x93 + x95 + x106 + x118 + x127
 + x130 + x138 + x154 + x176  <= 1
c269:   x7 + x10 + x31 + x37 + x78 + x166 + x176 + x183 + x193 + x196  <= 1
c270:   x14 + x22 + x54 + x111 + x143 + x153 + x157 + x159  <= 1
c271:   x20 + x43 + x45 + x46 + x99 + x102 + x152 + x173 + x182  <= 1
c272:   x40 + x91 + x119 + x147 + x148  <= 1
c273:   x26 + x65 + x71 + x90 + x98 + x100 + x153 + x186 + x194 + x196  <= 1
c274:   x40 + x41 + x42 + x50 + x83 + x100 + x160 + x168 + x199  <= 1
c275:   x41 + x45 + x59 + x60 + x66 + x103 + x107 + x129 + x133 + x155  <= 1
c276:   x6 + x27 + x44 + x51 + x54 + x57 + x79 + x81 + x98 + x109
 + x136 + x156 + x183  <= 1
c277:   x47 + x66 + x70 + x78 + x133 + x138 + x143 + x194  <= 1
c278:   x9 + x20 + x31 + x45 + x46 + x66 + x84 + x128 + x133 + x137
 + x164 + x175 + x178 + x185 + x197  <= 1
c279:   x20 + x54 + x72 + x74 + x103 + x156 + x164 + x176 + x177 + x188  <= 1
c280:   x3 + x5 + x61 + x104 + x145 + x158 + x162 + x167 + x184  <= 1
c281:   x20 + x33 + x81 + x109 + x118 + x152 + x158 + x173 + x177 + x179
 + x185 + x190 + x199  <= 1
c282:   x28 + x71 + x124 + x138 + x171  <= 1
c283:   x35 + x43 + x95 + x101 + x116 + x131 + x155 + x158  <= 1
c284:   x5 + x32 + x45 + x49 + x67 + x92 + x123 + x126 + x167 + x171
 + x175  <= 1
c285:   x32 + x33 + x37 + x86 + x98 + x117 + x140 + x145 + x147 + x155
 + x162 + x170 + x199  <= 1
c286:   x24 + x37 + x53 + x60 + x72 + x96 + x109 + x114 + x150 + x200  <= 1
c287:   x1 + x154 + x163  <= 1
c288:   x2 + x11 + x85 + x117 + x136 + x137 + x167 + x172 + x195  <= 1
c289:   x43 + x80 + x115 + x123 + x169 + x187 + x192  <= 1
c290:   x57 + x68 + x81 + x115 + x136 + x151 + x165 + x191  <= 1
c291:   x9 + x23 + x43 + x49 + x50 + x59 + x65 + x137 + x144 + x157
 + x165 + x173 + x177 + x187 + x192 + x196  <= 1
c292:   x54 + x92 + x98 + x101 + x128 + x147 + x153  <= 1
c293:   x33 + x36 + x49 + x55 + x84 + x99 + x110 + x167 + x194  <= 1
c294:   x3 + x19 + x23 + x41 + x68 + x103 + x137 + x174  <= 1
c295:   x87 + x90 + x92 + x104 + x105 + x112 + x133 + x165 + x166 + x168  <= 1
c296:   x37 + x118 + x119 + x159  <= 1
c297:   x14 + x47 + x127 + x134  <= 1
c298:   x16 + x46 + x55 + x66 + x101 + x129 + x142 + x188 + x193  <= 1
c299:   x57 + x69 + x85 + x88 + x91 + x92 + x98 + x109 + x132 + x134
 + x136 + x144 + x185 + x199  <= 1
c300:   x14 + x34 + x50 + x52 + x67 + x89 + x97 + x109 + x110 + x116
 + x125 + x127 + x148  <= 1
c301:   x26 + x72 + x78 + x82 + x95 + x101 + x136 + x162 + x163  <= 1
c302:   x19 + x41 + x62 + x86 + x102 + x127 + x148 + x161 + x180 + x188
 + x190  <= 1
c303:   x46 + x76 + x91 + x113 + x129 + x154 + x162 + x172  <= 1
c304:   x20 + x27 + x31 + x60 + x78 + x92 + x103 + x142 + x181  <= 1
c305:   x22 + x31 + x34 + x36 + x42 + x66 + x80 + x101 + x126 + x143
 + x144 + x162 + x164 + x189 + x194  <= 1
c306:   x1 + x7 + x18 + x39 + x61 + x78 + x94 + x111 + x173 + x182  <= 1
c307:   x45 + x72 + x116 + x162 + x171  <= 1
c308:   x4 + x13 + x32 + x93 + x103 + x104 + x105 + x123 + x163 + x192
 + x194  <= 1
c309:   x1 + x7 + x26 + x46 + x52 + x62 + x78 + x80 + x129 + x132
 + x135 + x136 + x148  <= 1
c310:   x35 + x40 + x48 + x61 + x110 + x132 + x162 + x189  <= 1
c311:   x12 + x14 + x33 + x77 + x87 + x91 + x105 + x107 + x132 + x138
 + x143 + x146  <= 1
c312:   x3 + x6 + x7 + x51 + x77 + x86 + x93 + x110 + x169 + x183
 + x187 + x192  <= 1
c313:   x2 + x15 + x55 + x62 + x72 + x80 + x90 + x117 + x120 + x134
 + x136 + x137 + x160 + x176 + x189 + x195  <= 1
c314:   x5 + x20 + x29 + x39 + x46 + x50 + x52 + x93 + x126 + x171
 + x180  <= 1
c315:   x10 + x11 + x19 + x25 + x33 + x43 + x52 + x68 + x85 + x98
 + x107 + x128 + x134 + x146 + x152  <= 1
c316:   x10 + x21 + x57 + x125 + x140 + x150  <= 1
c317:   x9 + x17 + x19 + x20 + x27 + x35 + x75 + x80 + x96 + x107
 + x182  <= 1
c318:   x23 + x37 + x60 + x101 + x162 + x196  <= 1
c319:   x3 + x7 + x30 + x47 + x93 + x124 + x128 + x133 + x141 + x142
 + x162 + x169 + x197 + x199  <= 1
c320:   x20 + x37 + x49 + x66 + x83 + x103 + x109 + x138 + x143 + x168
 + x174 + x182 + x195 + x200  <= 1
c321:   x1 + x4 + x14 + x23 + x24 + x32 + x58 + x61 + x62 + x79
 + x123 + x186  <= 1
c322:   x2 + x23 + x81 + x119 + x126 + x134 + x181 + x189 + x194 + x197  <= 1
c323:   x88 + x112 + x146 + x148 + x159 + x177 + x188  <= 1
c324:   x21 + x23 + x27 + x36 + x64 + x86 + x115 + x122 + x124 + x132
 + x143 + x189  <= 1
c325:   x12 + x18 + x29 + x43 + x73 + x98 + x111 + x114 + x146 + x150
 + x151 + x169 + x174  <= 1
c326:   x46 + x49 + x90 + x147 + x153 + x162 + x185  <= 1
c327:   x1 + x18 + x21 + x25 + x31 + x34 + x36 + x63 + x66 + x93
 + x100 + x139 + x174 + x182  <= 1
c328:   x31 + x32 + x34 + x64 + x92 + x96 + x147 + x174 + x175  <= 1
c329:   x44 + x94 + x95 + x104 + x134 + x140 + x154 + x164  <= 1
c330:   x10 + x11 + x56 + x91 + x95  <= 1
c331:   x32 + x48 + x58 + x63 + x82 + x162 + x165 + x176  <= 1
c332:   x14 + x25 + x31 + x92 + x98 + x121 + x130 + x148 + x180 + x192  <= 1
c333:   x1 + x21 + x48 + x63 + x78 + x139 + x185  <= 1
c334:   x28 + x47 + x54 + x56 + x70 + x77 + x102 + x103 + x129 + x149
 + x154 + x159 + x183 + x192 + x196 + x200  <= 1
c335:   x14 + x30 + x37 + x93 + x103 + x111 + x114 + x116 + x135 + x151
 + x196  <= 1
c336:   x30 + x81 + x124 + x160 + x167 + x180 + x185 + x195 + x198  <= 1
c337:   x8 + x22 + x24 + x25 + x27 + x31 + x39 + x71 + x72 + x104
 + x108 + x163 + x169 + x191  <= 1
c338:   x1 + x2 + x9 + x10 + x24 + x28 + x69 + x82 + x96 + x111
 + x126 + x143 + x191 + x194  <= 1
c339:   x32 + x49 + x56 + x92 + x111 + x118 + x150 + x153 + x159 + x164
 + x165  <= 1
c340:   x44 + x71 + x95 + x160  <= 1
c341:   x15 + x39 + x42 + x45 + x53 + x61 + x89 + x146 + x172 + x183  <= 1
c342:   x14 + x19 + x32 + x87 + x97 + x98 + x107 + x116 + x124 + x195  <= 1
c343:   x18 + x35 + x46 + x49 + x62 + x125 + x134 + x139 + x192  <= 1
c344:   x14 + x63 + x70 + x107 + x126 + x134 + x156 + x184  <= 1
c345:   x19 + x30 + x31 + x53 + x61 + x85 + x125 + x151 + x177 + x186
 + x192  <= 1
c346:   x9 + x36 + x38 + x74 + x108 + x130 + x149 + x186  <= 1
c347:   x10 + x26 + x36 + x53 + x66 + x92 + x126 + x127 + x128  <= 1
c348:   x17 + x34 + x51 + x86 + x89 + x117 + x174 + x183 + x195  <= 1
c349:   x11 + x14 + x32 + x40 + x44 + x60 + x65 + x88 + x89 + x90
 + x150 + x158 + x186  <= 1
c350:   x19 + x27 + x33 + x124 + x150 + x177 + x178 + x196  <= 1
c351:   x9 + x49 + x51 + x85 + x95 + x96 + x167 + x178 + x187 + x194
 + x195  <= 1
c352:   x48 + x68 + x91 + x92 + x125 + x165 + x175 + x190  <= 1
c353:   x2 + x5 + x20 + x30 + x45 + x51 + x61 + x64 + x99 + x157
 + x161 + x198  <= 1
c354:   x17 + x47 + x59 + x74 + x110 + x125 + x133 + x153  <= 1
c355:   x16 + x26 + x32 + x36 + x39 + x45 + x78 + x138 + x175 + x200  <= 1
c356:   x31 + x41 + x59 + x64 + x68 + x99 + x118 + x119 + x120 + x179  <= 1
c357:   x92 + x150 + x155 + x162 + x169 + x170 + x178 + x190 + x197 + x198  <= 1
c358:   x7 + x22 + x42 + x76 + x112 + x145 + x180 + x188  <= 1
c359:   x12 + x34 + x44 + x60 + x65 + x94 + x103 + x105 + x171  <= 1
c360:   x2 + x12 + x14 + x16 + x20 + x26 + x45 + x62 + x70 + x125
 + x139 + x164 + x166  <= 1
c361:   x52 + x70 + x155 + x158 + x182 + x193 + x196  <= 1
c362:   x6 + x11 + x21 + x34 + x41 + x43 + x48 + x60 + x72 + x103
 + x124 + x152 + x161 + x196  <= 1
c363:   x46 + x73 + x77 + x93 + x95 + x132 + x146 + x180  <= 1
c364:   x21 + x24 + x30 + x32 + x36 + x99 + x146 + x159 + x167 + x168
 + x183  <= 1
c365:   x1 + x3 + x11 + x30 + x63 + x88 + x92 + x115 + x133 + x154
 + x182  <= 1
c366:   x5 + x47 + x89 + x109 + x114 + x147 + x154 + x169  <= 1
c367:   x9 + x25 + x74 + x77 + x87 + x88 + x95 + x111 + x125 + x133
 + x137 + x141 + x154 + x178  <= 1
c368:   x12 + x19 + x68 + x71 + x72 + x120 + x125 + x176 + x195  <= 1
c369:   x6 + x19 + x21 + x28 + x33 + x37 + x51 + x82 + x98 + x104
 + x134 + x145 + x153 + x157  <= 1
c370:   x13 + x26 + x58 + x64 + x66 + x70 + x100 + x127  <= 1
c371:   x26 + x31 + x61 + x85 + x92 + x99 + x109 + x155 + x193  <= 1
c372:   x15 + x31 + x32 + x44 + x72 + x73 + x75 + x81 + x86 + x92
 + x115 + x151 + x176 + x191  <= 1
c373:   x1 + x7 + x26 + x35 + x40 + x41 + x62 + x78 + x95 + x115
 + x117 + x132 + x139 + x140 + x165 + x197  <= 1
c374:   x14 + x16 + x21 + x35 + x89 + x123 + x126 + x154 + x200  <= 1
c375:   x23 + x32 + x42 + x55 + x74 + x84 + x118 + x130 + x140 + x155
 + x174 + x177 + x191 + x200  <= 1
c376:   x11 + x37 + x74 + x84 + x94 + x145 + x158 + x177  <= 1
c377:   x10 + x29 + x75 + x162 + x191  <= 1
c378:   x22 + x46 + x125 + x133 + x136 + x140 + x160 + x175 + x178  <= 1
c379:   x6 + x38 + x49 + x50 + x81 + x116 + x122 + x131 + x153 + x166
 + x171  <= 1
c380:   x5 + x141 + x144 + x161 + x165 + x171 + x190 + x195  <= 1
c381:   x60 + x98 + x112 + x150 + x154 + x158 + x165 + x171  <= 1
c382:   x13 + x34 + x67 + x71 + x72 + x76 + x132 + x181 + x182  <= 1
c383:   x7 + x31 + x50 + x105 + x112 + x123 + x146 + x158 + x164 + x166
 + x177  <= 1
c384:   x9 + x14 + x17 + x22 + x32 + x48 + x83 + x99 + x101 + x102
 + x129 + x136 + x178 + x183 + x193  <= 1
c385:   x17 + x28 + x48 + x49 + x54 + x57 + x68 + x87 + x111 + x116
 + x133 + x163 + x167  <= 1
c386:   x1 + x17 + x22 + x35 + x109 + x129 + x152 + x173 + x183  <= 1
c387:   x12 + x24 + x39 + x53 + x60 + x68 + x69 + x73 + x81 + x99
 + x104 + x112 + x136 + x147 + x158 + x163 + x179 + x187  <= 1
c388:   x33 + x44 + x51 + x99 + x102 + x113 + x118 + x151 + x189 + x200  <= 1
c389:   x10 + x12 + x56 + x89 + x96 + x145 + x197  <= 1
c390:   x21 + x31 + x73 + x115 + x117 + x198  <= 1
c391:   x8 + x18 + x26 + x49 + x74 + x87 + x94 + x103 + x114 + x125
 + x128 + x131 + x159 + x160 + x162 + x178 + x180  <= 1
c392:   x18 + x24 + x67 + x77 + x91 + x92 + x97 + x119  <= 1
c393:   x2 + x15 + x31 + x39 + x77 + x160 + x192  <= 1
c394:   x6 + x26 + x64 + x65 + x70 + x134 + x196  <= 1
c395:   x6 + x18 + x54 + x58 + x59 + x134 + x147 + x180 + x194  <= 1
c396:   x11 + x18 + x147 + x197 + x198  <= 1
c397:   x16 + x51 + x58 + x60 + x86 + x88 + x110 + x114 + x144 + x168
 + x192  <= 1
c398:   x21 + x26 + x42 + x51 + x64 + x68 + x69 + x97 + x100 + x159
 + x176 + x180 + x183 + x185  <= 1
c399:   x47 + x83 + x98 + x113 + x121 + x123 + x142  <= 1
c400:   x15 + x37 + x68 + x83 + x112 + x140 + x156 + x160 + x165 + x168
 + x197 + x200  <= 1
INTEGERS
 x1
 x2
 x3
 x4
 x5
 x6
 x7
 x8
 x9
 x10
 x11
 x12
 x13
 x14
 x15
 x16
 x17
 x18
 x19
 x20
 x21
 x22
 x23
 x24
 x25
 x26
 x27
 x28
 x29
 x30
 x31
 x32
 x33
 x34
 x35
 x36
 x37
 x38
 x39
 x40
 x41
 x42
 x43
 x44
 x45
 x46
 x47
 x48
 x49
 x50
 x51
 x52
 x53
 x54
 x55
 x56
 x57
 x58
 x59
 x60
 x61
 x62
 x63
 x64
 x65
 x66
 x67
 x68
 x69
 x70
 x71
 x72
 x73
 x74
 x75
 x76
 x77
 x78
 x79
 x80
 x81
 x82
 x83
 x84
 x85
 x86
 x87
 x88
 x89
 x90
 x91
 x92
 x93
 x94
 x95
 x96
 x97
 x98
 x99
 x100
 x101
 x102
 x103
 x104
 x105
 x106
 x107
 x108
 x109
 x110
 x111
 x112
 x113
 x114
 x115
 x116
 x117
 x118
 x119
 x120
 x121
 x122
 x123
 x124
 x125
 x126
 x127
 x128
 x129
 x130
 x131
 x132
 x133
 x134
 x135
 x136
 x137
 x138
 x139
 x140
 x141
 x142
 x143
 x144
 x145
 x146
 x147
 x148
 x149
 x150
 x151
 x152
 x153
 x154
 x155
 x156
 x157
 x158
 x159
 x160
 x161
 x162
 x163
 x164
 x165
 x166
 x167
 x168
 x169
 x170
 x171
 x172
 x173
 x174
 x175
 x176
 x177
 x178
 x179
 x180
 x181
 x182
 x183
 x184
 x185
 x186
 x187
 x188
 x189
 x190
 x191
 x192
 x193
 x194
 x195
 x196
 x197
 x198
 x199
 x200
End
